1056
1   1   0    100  0 85 94 95 97 0
1   2   0    88   0 44 38 86 16 0
1   3   0    99   0 14 43 15 57 2 40 58 13 0
1   4   0    99   0 99 96 27 1 51 9 50 53 0
1   5   0    0    0 0
1   6   0    100  0 84 5 93 59 100 0
2   1   0    93   0 72 74 22 41 75 4 0
2   2   0    91   0 39 67 23 56 0
2   3   0    100  0 48 46 45 17 61 91 42 87 0
2   4   0    98   0 68 77 3 79 29 24 0
2   5   0    97   0 25 55 54 80 12 76 28 26 0
2   6   0    20   0 21 73 0
3   1   0    97   0 71 65 35 34 78 81 33 0
3   2   0    99   0 10 11 19 36 49 64 63 0
3   3   0    95   0 31 52 18 83 8 47 0
3   4   0    0    0 0
3   5   0    96   0 69 89 6 92 37 98 60 82 7 88 62 0
3   6   0    86   0 70 30 20 66 32 90 0